(set-logic QF_SLAH)

(declare-datatypes ((data_t 0)) (((c_data_t (sz Int)))))

(declare-heap (Int data_t))

(define-fun hck ((?x Int) (?y Int) (?v Int)) Bool
	(and
		(>= (- ?y ?x) 2) (<= (- ?y ?x) ?v)
		(sep (pto ?x (c_data_t (- ?y ?x))) (blk (+ ?x 1) ?y))
))

(define-fun-rec hls ((?x Int) (?y Int) (?v Int)) Bool
	(or
		(and (= ?x ?y) (_ emp Int data_t))
		(exists ((?w Int)) (sep (hck ?x ?w ?v) (hls ?w ?y ?v)))
))

(declare-const x0 Int)
(declare-const x1 Int)
(declare-const v0 Int)
(declare-const x2 Int)
(declare-const x3 Int)
(declare-const x4 Int)
(declare-const x5 Int)
(declare-const v4 Int)
(declare-const x6 Int)
(declare-const x7 Int)
(declare-const x8 Int)
(declare-const x9 Int)
(declare-const x10 Int)
(declare-const x11 Int)
(declare-const x12 Int)
(declare-const x13 Int)
(declare-const x14 Int)
(declare-const x15 Int)
(declare-const x16 Int)
(declare-const x17 Int)
(declare-const x18 Int)
(declare-const x19 Int)
(declare-const x20 Int)
(declare-const x21 Int)
(declare-const x22 Int)
(declare-const x23 Int)
(declare-const v22 Int)
(declare-const x24 Int)
(declare-const x25 Int)
(declare-const v24 Int)
(declare-const x26 Int)
(declare-const x27 Int)
(declare-const v26 Int)
(declare-const x28 Int)
(declare-const x29 Int)
(declare-const x30 Int)
(declare-const x31 Int)
(declare-const v30 Int)
(declare-const x32 Int)
(declare-const x33 Int)
(declare-const v32 Int)
(declare-const x34 Int)
(declare-const x35 Int)
(declare-const v34 Int)
(declare-const x36 Int)
(declare-const x37 Int)
(declare-const v36 Int)
(declare-const x38 Int)
(declare-const x39 Int)
(declare-const v38 Int)
(declare-const x40 Int)
(declare-const x41 Int)
(declare-const x42 Int)
(declare-const x43 Int)
(declare-const x44 Int)
(declare-const x45 Int)
(declare-const x46 Int)
(declare-const x47 Int)
(declare-const v46 Int)
(declare-const x48 Int)
(declare-const x49 Int)
(declare-const x50 Int)
(declare-const x51 Int)
(declare-const x52 Int)
(declare-const x53 Int)
(declare-const x54 Int)
(declare-const x55 Int)
(declare-const x56 Int)
(declare-const x57 Int)
(declare-const x58 Int)
(declare-const x59 Int)
(declare-const x60 Int)
(declare-const x61 Int)
(declare-const x62 Int)
(declare-const x63 Int)
(declare-const x64 Int)
(declare-const x65 Int)
(declare-const x66 Int)
(declare-const x67 Int)
(declare-const x68 Int)
(declare-const x69 Int)
(declare-const v68 Int)
(declare-const x70 Int)
(declare-const x71 Int)
(declare-const x72 Int)
(declare-const x73 Int)
(declare-const x74 Int)
(declare-const x75 Int)
(declare-const x76 Int)
(declare-const x77 Int)
(declare-const x78 Int)
(declare-const x79 Int)
(declare-const v78 Int)
(declare-const x80 Int)
(declare-const x81 Int)
(declare-const x82 Int)
(declare-const x83 Int)
(declare-const x84 Int)
(declare-const x85 Int)
(declare-const x86 Int)
(declare-const x87 Int)
(declare-const x88 Int)
(declare-const x89 Int)
(declare-const x90 Int)
(declare-const x91 Int)
(declare-const x92 Int)
(declare-const x93 Int)
(declare-const x94 Int)
(declare-const x95 Int)
(declare-const v94 Int)
(declare-const x96 Int)
(declare-const x97 Int)
(declare-const x98 Int)
(declare-const x99 Int)
(declare-const x100 Int)
(declare-const x101 Int)
(declare-const x102 Int)
(declare-const x103 Int)
(declare-const x104 Int)
(declare-const x105 Int)
(declare-const v104 Int)
(declare-const x106 Int)
(declare-const x107 Int)
(declare-const x108 Int)
(declare-const x109 Int)
(declare-const x110 Int)
(declare-const x111 Int)
(declare-const v110 Int)
(declare-const x112 Int)
(declare-const x113 Int)
(declare-const x114 Int)
(declare-const x115 Int)
(declare-const x116 Int)
(declare-const x117 Int)
(declare-const x118 Int)
(declare-const x119 Int)
(declare-const v118 Int)
(declare-const x120 Int)
(declare-const x121 Int)
(declare-const v120 Int)
(declare-const x122 Int)
(declare-const x123 Int)
(declare-const x124 Int)
(declare-const x125 Int)
(declare-const x126 Int)
(declare-const x127 Int)
(declare-const v126 Int)
(declare-const x128 Int)
(declare-const x129 Int)
(declare-const x130 Int)
(declare-const x131 Int)
(declare-const x132 Int)
(declare-const x133 Int)
(declare-const v132 Int)
(declare-const x134 Int)
(declare-const x135 Int)
(declare-const v134 Int)
(declare-const x136 Int)
(declare-const x137 Int)
(declare-const v136 Int)
(declare-const x138 Int)
(declare-const x139 Int)
(declare-const v138 Int)
(declare-const x140 Int)
(declare-const x141 Int)
(declare-const v140 Int)
(declare-const x142 Int)
(declare-const x143 Int)
(declare-const x144 Int)
(declare-const x145 Int)
(declare-const x146 Int)
(declare-const x147 Int)
(declare-const x148 Int)
(declare-const x149 Int)
(declare-const v148 Int)
(declare-const x150 Int)
(declare-const x151 Int)
(declare-const v150 Int)
(declare-const x152 Int)
(declare-const x153 Int)
(declare-const x154 Int)
(declare-const x155 Int)
(declare-const v154 Int)
(declare-const x156 Int)
(declare-const x157 Int)
(declare-const x158 Int)
(declare-const x159 Int)
(declare-const x160 Int)
(declare-const x161 Int)
(declare-const v160 Int)
(declare-const x162 Int)
(declare-const x163 Int)
(declare-const x164 Int)
(declare-const x165 Int)
(declare-const x166 Int)
(declare-const x167 Int)
(declare-const v166 Int)
(declare-const x168 Int)
(declare-const x169 Int)

(assert(and
(= x155 x117) (distinct x45 x103) (< x68 x91) (= x103 x75) (= x26 x131) (< x133 x79) (= x51 x48) (= x164 x19) 
(sep
(hls x0 x1 v0)
(pto x2 (c_data_t x3))
(hls x4 x5 v4)
(pto x6 (c_data_t x7))
(pto x8 (c_data_t x9))
(pto x10 (c_data_t x11))
(pto x12 (c_data_t x13))
(pto x14 (c_data_t x15))
(pto x16 (c_data_t x17))
(blk x18 x19)
(pto x20 (c_data_t x21))
(hls x22 x23 v22)
(hls x24 x25 v24)
(hls x26 x27 v26)
(blk x28 x29)
(hls x30 x31 v30)
(hls x32 x33 v32)
(hls x34 x35 v34)
(hls x36 x37 v36)
(hls x38 x39 v38)
(blk x40 x41)
(pto x42 (c_data_t x43))
(blk x44 x45)
(hls x46 x47 v46)
(blk x48 x49)
(pto x50 (c_data_t x51))
(blk x52 x53)
(blk x54 x55)
(pto x56 (c_data_t x57))
(blk x58 x59)
(blk x60 x61)
(pto x62 (c_data_t x63))
(blk x64 x65)
(blk x66 x67)
(hls x68 x69 v68)
(pto x70 (c_data_t x71))
(pto x72 (c_data_t x73))
(blk x74 x75)
(blk x76 x77)
(hls x78 x79 v78)
(pto x80 (c_data_t x81))
(blk x82 x83)
(pto x84 (c_data_t x85))
(pto x86 (c_data_t x87))
(blk x88 x89)
(pto x90 (c_data_t x91))
(blk x92 x93)
(hls x94 x95 v94)
(pto x96 (c_data_t x97))
(blk x98 x99)
(blk x100 x101)
(blk x102 x103)
(hls x104 x105 v104)
(blk x106 x107)
(blk x108 x109)
(hls x110 x111 v110)
(pto x112 (c_data_t x113))
(blk x114 x115)
(blk x116 x117)
(hls x118 x119 v118)
(hls x120 x121 v120)
(blk x122 x123)
(pto x124 (c_data_t x125))
(hls x126 x127 v126)
(blk x128 x129)
(pto x130 (c_data_t x131))
(hls x132 x133 v132)
(hls x134 x135 v134)
(hls x136 x137 v136)
(hls x138 x139 v138)
(hls x140 x141 v140)
(blk x142 x143)
(blk x144 x145)
(pto x146 (c_data_t x147))
(hls x148 x149 v148)
(hls x150 x151 v150)
(pto x152 (c_data_t x153))
(hls x154 x155 v154)
(blk x156 x157)
(pto x158 (c_data_t x159))
(hls x160 x161 v160)
(pto x162 (c_data_t x163))
(pto x164 (c_data_t x165))
(hls x166 x167 v166)
(blk x168 x169)
)))

(check-sat)